(declare-const c_0 Real)
(declare-const c_1 Real)
(declare-const c_2 Real)
(declare-const c_3 Real)
(declare-const c_4 Real)
(declare-const c_5 Real)
(declare-const c_6 Real)
(declare-const c_7 Real)
(declare-const c_8 Real)
(declare-const c_9 Real)
(declare-const c_10 Real)
(declare-const c_11 Real)
(declare-const c_12 Real)
(declare-const c_13 Real)
(declare-const c_14 Real)
(declare-const c_15 Real)
(declare-const c_16 Real)
(declare-const c_17 Real)
(declare-const c_18 Real)
(declare-const c_19 Real)
(declare-const c_20 Real)
(declare-const c_21 Real)
(declare-const c_22 Real)
(declare-const c_23 Real)
(declare-const c_24 Real)
(declare-const c_25 Real)
(declare-const c_26 Real)
(declare-const c_27 Real)
(declare-const c_28 Real)
(declare-const c_29 Real)
(declare-const c_30 Real)
(declare-const c_31 Real)
(declare-const c_32 Real)
(declare-const c_33 Real)
(declare-const c_34 Real)
(declare-const c_35 Real)
(declare-const c_36 Real)
(declare-const c_37 Real)
(declare-const c_38 Real)
(declare-const c_39 Real)
(declare-const c_40 Real)
(declare-const c_41 Real)
(declare-const c_42 Real)
(declare-const c_43 Real)
(declare-const c_44 Real)
(declare-const c_45 Real)
(declare-const c_46 Real)
(declare-const c_47 Real)
(declare-const c_48 Real)
(declare-const c_49 Real)
(declare-const c_50 Real)
(declare-const c_51 Real)
(declare-const c_52 Real)
(declare-const c_53 Real)
(declare-const c_54 Real)
(declare-const c_55 Real)
(declare-const c_56 Real)
(declare-const c_57 Real)
(declare-const c_58 Real)
(declare-const c_59 Real)
(declare-const s_0 Real)
(declare-const s_1 Real)
(declare-const s_2 Real)
(declare-const s_3 Real)
(declare-const s_4 Real)
(declare-const s_5 Real)
(declare-const s_6 Real)
(declare-const s_7 Real)
(declare-const s_8 Real)
(declare-const s_9 Real)
(declare-const s_10 Real)
(declare-const s_11 Real)
(declare-const s_12 Real)
(declare-const s_13 Real)
(declare-const s_14 Real)
(declare-const s_15 Real)
(declare-const s_16 Real)
(declare-const s_17 Real)
(declare-const s_18 Real)
(declare-const s_19 Real)
(declare-const s_20 Real)
(declare-const s_21 Real)
(declare-const s_22 Real)
(declare-const s_23 Real)
(declare-const s_24 Real)
(declare-const s_25 Real)
(declare-const s_26 Real)
(declare-const s_27 Real)
(declare-const s_28 Real)
(declare-const s_29 Real)
(declare-const s_30 Real)
(declare-const s_31 Real)
(declare-const s_32 Real)
(declare-const s_33 Real)
(declare-const s_34 Real)
(declare-const s_35 Real)
(declare-const s_36 Real)
(declare-const s_37 Real)
(declare-const s_38 Real)
(declare-const s_39 Real)
(declare-const s_40 Real)
(declare-const s_41 Real)
(declare-const s_42 Real)
(declare-const s_43 Real)
(declare-const s_44 Real)
(declare-const s_45 Real)
(declare-const s_46 Real)
(declare-const s_47 Real)
(declare-const s_48 Real)
(declare-const s_49 Real)
(declare-const s_50 Real)
(declare-const s_51 Real)
(declare-const s_52 Real)
(declare-const s_53 Real)
(declare-const s_54 Real)
(declare-const s_55 Real)
(declare-const s_56 Real)
(declare-const s_57 Real)
(declare-const s_58 Real)
(declare-const s_59 Real)
(assert (forall ((i Real) (j Real) (k Real) (n Real) ) (=> (and (>= (+ (* 1024 1) (* 1 i ) ) 0) (>= (+ (* 1023 1) (* (- 1) i ) ) 0) (>= (+ (* 1024 1) (* 1 j ) ) 0) (>= (+ (* 1023 1) (* (- 1) j ) ) 0) (>= (+ (* 1024 1) (* 1 k ) ) 0) (>= (+ (* 1023 1) (* (- 1) k ) ) 0) (>= (+ (* 1024 1) (* 1 n ) ) 0) (>= (+ (* 1023 1) (* (- 1) n ) ) 0) ) (>= (+ (* 1 i j s_2 ) (* 1 i k s_3 ) (* 1 i n s_4 ) (* 1 i s_1 ) (* 1 i i s_5 ) (* 1 j k s_7 ) (* 1 j n s_8 ) (* 1 j s_6 ) (* 1 j j s_9 ) (* 1 k n s_11 ) (* 1 k s_10 ) (* 1 k k s_12 ) (* 1 n s_13 ) (* 1 n n s_14 ) (* 1 s_0 ) ) 0) )))
(assert (forall ((i Real) (j Real) (k Real) (n Real) ) (=> (and (>= (+ (* 1024 1) (* 1 i ) ) 0) (>= (+ (* 1023 1) (* (- 1) i ) ) 0) (>= (+ (* 1024 1) (* 1 j ) ) 0) (>= (+ (* 1023 1) (* (- 1) j ) ) 0) (>= (+ (* 1024 1) (* 1 k ) ) 0) (>= (+ (* 1023 1) (* (- 1) k ) ) 0) (>= (+ (* 1024 1) (* 1 n ) ) 0) (>= (+ (* 1023 1) (* (- 1) n ) ) 0) ) (>= (+ (* 1 c_0 ) (* 1 c_1 i ) (* 1 c_10 k ) (* 1 c_11 k n ) (* 1 c_12 k k ) (* 1 c_13 n ) (* 1 c_14 n n ) (* 1 c_2 i j ) (* 1 c_3 i k ) (* 1 c_4 i n ) (* 1 c_5 i i ) (* 1 c_6 j ) (* 1 c_7 j k ) (* 1 c_8 j n ) (* 1 c_9 j j ) ) 0) )))
(assert (forall ((i Real) (j Real) (k Real) (n Real) ) (=> (and (>= (+ (* (- 1) 1) (* 1 k ) ) 0) (>= (+ (* 1024 1) (* 1 i ) ) 0) (>= (+ (* 1024 1) (* 1 j ) ) 0) (>= (+ (* 1024 1) (* 1 k ) ) 0) (>= (+ (* 1024 1) (* 1 n ) ) 0) (>= (+ (* 1023 1) (* (- 1) n ) ) 0) (>= (+ (* 1023 1) (* (- 1) k ) ) 0) (>= (+ (* 1023 1) (* (- 1) j ) ) 0) (>= (+ (* 1023 1) (* (- 1) i ) ) 0) (>= (+ (* 1 i j s_2 ) (* 1 i k s_3 ) (* 1 i n s_4 ) (* 1 i s_1 ) (* 1 i i s_5 ) (* 1 j k s_7 ) (* 1 j n s_8 ) (* 1 j s_6 ) (* 1 j j s_9 ) (* 1 k n s_11 ) (* 1 k s_10 ) (* 1 k k s_12 ) (* 1 n s_13 ) (* 1 n n s_14 ) (* 1 s_0 ) ) 0) ) (>= (+ (* 1 j k s_37 ) (* 1 j n s_38 ) (* 1 j s_36 ) (* 1 j j s_39 ) (* 1 k n s_41 ) (* 1 k s_40 ) (* 1 k k s_42 ) (* 1 n s_43 ) (* 1 n n s_44 ) (* 1 s_30 ) ) 0) )))
(assert (forall ((i Real) (j Real) (k Real) (n Real) ) (=> (and (>= (+ (* (- 1) 1) (* 1 k ) ) 0) (>= (+ (* 1024 1) (* 1 i ) ) 0) (>= (+ (* 1024 1) (* 1 j ) ) 0) (>= (+ (* 1024 1) (* 1 k ) ) 0) (>= (+ (* 1024 1) (* 1 n ) ) 0) (>= (+ (* 1023 1) (* (- 1) n ) ) 0) (>= (+ (* 1023 1) (* (- 1) k ) ) 0) (>= (+ (* 1023 1) (* (- 1) j ) ) 0) (>= (+ (* 1023 1) (* (- 1) i ) ) 0) (>= (+ (* 1 i j s_2 ) (* 1 i k s_3 ) (* 1 i n s_4 ) (* 1 i s_1 ) (* 1 i i s_5 ) (* 1 j k s_7 ) (* 1 j n s_8 ) (* 1 j s_6 ) (* 1 j j s_9 ) (* 1 k n s_11 ) (* 1 k s_10 ) (* 1 k k s_12 ) (* 1 n s_13 ) (* 1 n n s_14 ) (* 1 s_0 ) ) 0) ) (>= (+ (* 1 c_30 ) (* 1 c_36 j ) (* 1 c_37 j k ) (* 1 c_38 j n ) (* 1 c_39 j j ) (* 1 c_40 k ) (* 1 c_41 k n ) (* 1 c_42 k k ) (* 1 c_43 n ) (* 1 c_44 n n ) ) 0) )))
(assert (forall ((i Real) (j Real) (k Real) (n Real) ) (=> (and (>= (+ (* (- 1) 1) (* 1 k ) ) 0) (>= (+ (* 1024 1) (* 1 i ) ) 0) (>= (+ (* 1024 1) (* 1 j ) ) 0) (>= (+ (* 1024 1) (* 1 k ) ) 0) (>= (+ (* 1024 1) (* 1 n ) ) 0) (>= (+ (* 1023 1) (* (- 1) n ) ) 0) (>= (+ (* 1023 1) (* (- 1) k ) ) 0) (>= (+ (* 1023 1) (* (- 1) j ) ) 0) (>= (+ (* 1023 1) (* (- 1) i ) ) 0) (>= (+ (* 1 i j s_2 ) (* 1 i k s_3 ) (* 1 i n s_4 ) (* 1 i s_1 ) (* 1 i i s_5 ) (* 1 j k s_7 ) (* 1 j n s_8 ) (* 1 j s_6 ) (* 1 j j s_9 ) (* 1 k n s_11 ) (* 1 k s_10 ) (* 1 k k s_12 ) (* 1 n s_13 ) (* 1 n n s_14 ) (* 1 s_0 ) ) 0) ) (>= (+ (* (- 1) 1) (* 1 c_0 ) (* 1 c_1 i ) (* 1 c_10 k ) (* 1 c_11 k n ) (* 1 c_12 k k ) (* 1 c_13 n ) (* 1 c_14 n n ) (* 1 c_2 i j ) (* 1 c_3 i k ) (* (- 1) c_30 ) (* (- 1) c_36 j ) (* (- 1) c_37 j k ) (* (- 1) c_38 j n ) (* (- 1) c_39 j j ) (* 1 c_4 i n ) (* (- 1) c_40 k ) (* (- 1) c_41 k n ) (* (- 1) c_42 k k ) (* (- 1) c_43 n ) (* (- 1) c_44 n n ) (* 1 c_5 i i ) (* 1 c_6 j ) (* 1 c_7 j k ) (* 1 c_8 j n ) (* 1 c_9 j j ) ) 0) )))
(assert (forall ((i Real) (j Real) (k Real) (n Real) ) (=> (and (>= (* (- 1) k ) 0) (>= (+ (* 1024 1) (* 1 i ) ) 0) (>= (+ (* 1024 1) (* 1 j ) ) 0) (>= (+ (* 1024 1) (* 1 k ) ) 0) (>= (+ (* 1024 1) (* 1 n ) ) 0) (>= (+ (* 1023 1) (* (- 1) n ) ) 0) (>= (+ (* 1023 1) (* (- 1) k ) ) 0) (>= (+ (* 1023 1) (* (- 1) j ) ) 0) (>= (+ (* 1023 1) (* (- 1) i ) ) 0) (>= (+ (* 1 i j s_2 ) (* 1 i k s_3 ) (* 1 i n s_4 ) (* 1 i s_1 ) (* 1 i i s_5 ) (* 1 j k s_7 ) (* 1 j n s_8 ) (* 1 j s_6 ) (* 1 j j s_9 ) (* 1 k n s_11 ) (* 1 k s_10 ) (* 1 k k s_12 ) (* 1 n s_13 ) (* 1 n n s_14 ) (* 1 s_0 ) ) 0) ) (>= (+ (* 1 i j s_47 ) (* 1 i k s_48 ) (* 1 i n s_49 ) (* 1 i s_46 ) (* 1 i i s_50 ) (* 1 j k s_52 ) (* 1 j n s_53 ) (* 1 j s_51 ) (* 1 j j s_54 ) (* 1 k n s_56 ) (* 1 k s_55 ) (* 1 k k s_57 ) (* 1 n s_58 ) (* 1 n n s_59 ) (* 1 s_45 ) ) 0) )))
(assert (forall ((i Real) (j Real) (k Real) (n Real) ) (=> (and (>= (* (- 1) k ) 0) (>= (+ (* 1024 1) (* 1 i ) ) 0) (>= (+ (* 1024 1) (* 1 j ) ) 0) (>= (+ (* 1024 1) (* 1 k ) ) 0) (>= (+ (* 1024 1) (* 1 n ) ) 0) (>= (+ (* 1023 1) (* (- 1) n ) ) 0) (>= (+ (* 1023 1) (* (- 1) k ) ) 0) (>= (+ (* 1023 1) (* (- 1) j ) ) 0) (>= (+ (* 1023 1) (* (- 1) i ) ) 0) (>= (+ (* 1 i j s_2 ) (* 1 i k s_3 ) (* 1 i n s_4 ) (* 1 i s_1 ) (* 1 i i s_5 ) (* 1 j k s_7 ) (* 1 j n s_8 ) (* 1 j s_6 ) (* 1 j j s_9 ) (* 1 k n s_11 ) (* 1 k s_10 ) (* 1 k k s_12 ) (* 1 n s_13 ) (* 1 n n s_14 ) (* 1 s_0 ) ) 0) ) (>= (+ (* 1 c_45 ) (* 1 c_46 i ) (* 1 c_47 i j ) (* 1 c_48 i k ) (* 1 c_49 i n ) (* 1 c_50 i i ) (* 1 c_51 j ) (* 1 c_52 j k ) (* 1 c_53 j n ) (* 1 c_54 j j ) (* 1 c_55 k ) (* 1 c_56 k n ) (* 1 c_57 k k ) (* 1 c_58 n ) (* 1 c_59 n n ) ) 0) )))
(assert (forall ((i Real) (j Real) (k Real) (n Real) ) (=> (and (>= (+ (* 1 i ) (* (- 1) j ) ) 0) (>= (+ (* (- 1) 1) (* (- 1) i ) (* 1 n ) ) 0) (>= (+ (* 1023 1) (* (- 1) k ) ) 0) (>= (+ (* (- 1) 1) (* 1 k ) ) 0) (>= (* 1 j ) 0) (>= (* 1 i ) 0) (>= (+ (* 1023 1) (* (- 1) n ) ) 0) (>= (+ (* 1 i j s_17 ) (* 1 i k s_18 ) (* 1 i n s_19 ) (* 1 i s_16 ) (* 1 i i s_20 ) (* 1 j k s_22 ) (* 1 j n s_23 ) (* 1 j s_21 ) (* 1 j j s_24 ) (* 1 k n s_26 ) (* 1 k s_25 ) (* 1 k k s_27 ) (* 1 n s_28 ) (* 1 n n s_29 ) (* 1 s_15 ) ) 0) ) (>= (+ (* 1 i j s_17 ) (* 1 i k s_17 ) (* 1 i k s_18 ) (* 1 i n s_19 ) (* 1 i s_16 ) (* 1 i i s_20 ) (* 1 j k s_22 ) (* 2 j k s_24 ) (* 1 j n s_23 ) (* 1 j s_21 ) (* 1 j j s_24 ) (* 1 k n s_23 ) (* 1 k n s_26 ) (* 1 k s_21 ) (* 1 k s_25 ) (* 1 k k s_22 ) (* 1 k k s_24 ) (* 1 k k s_27 ) (* 1 n s_28 ) (* 1 n n s_29 ) (* 1 s_15 ) ) 0) )))
(assert (forall ((i Real) (j Real) (k Real) (n Real) ) (=> (and (>= (+ (* 1 i ) (* (- 1) j ) ) 0) (>= (+ (* (- 1) 1) (* (- 1) i ) (* 1 n ) ) 0) (>= (+ (* 1023 1) (* (- 1) k ) ) 0) (>= (+ (* (- 1) 1) (* 1 k ) ) 0) (>= (* 1 j ) 0) (>= (* 1 i ) 0) (>= (+ (* 1023 1) (* (- 1) n ) ) 0) (>= (+ (* 1 i j s_17 ) (* 1 i k s_18 ) (* 1 i n s_19 ) (* 1 i s_16 ) (* 1 i i s_20 ) (* 1 j k s_22 ) (* 1 j n s_23 ) (* 1 j s_21 ) (* 1 j j s_24 ) (* 1 k n s_26 ) (* 1 k s_25 ) (* 1 k k s_27 ) (* 1 n s_28 ) (* 1 n n s_29 ) (* 1 s_15 ) ) 0) ) (>= (+ (* 1 c_15 ) (* 1 c_16 i ) (* 1 c_17 i j ) (* 1 c_17 i k ) (* 1 c_18 i k ) (* 1 c_19 i n ) (* 1 c_20 i i ) (* 1 c_21 j ) (* 1 c_21 k ) (* 1 c_22 j k ) (* 1 c_22 k k ) (* 1 c_23 j n ) (* 1 c_23 k n ) (* 2 c_24 j k ) (* 1 c_24 j j ) (* 1 c_24 k k ) (* 1 c_25 k ) (* 1 c_26 k n ) (* 1 c_27 k k ) (* 1 c_28 n ) (* 1 c_29 n n ) ) 0) )))
(assert (forall ((i Real) (j Real) (k Real) (n Real) ) (=> (and (>= (+ (* 1 i ) (* (- 1) j ) ) 0) (>= (+ (* (- 1) 1) (* (- 1) i ) (* 1 n ) ) 0) (>= (+ (* 1023 1) (* (- 1) k ) ) 0) (>= (+ (* (- 1) 1) (* 1 k ) ) 0) (>= (* 1 j ) 0) (>= (* 1 i ) 0) (>= (+ (* 1023 1) (* (- 1) n ) ) 0) (>= (+ (* 1 i j s_17 ) (* 1 i k s_18 ) (* 1 i n s_19 ) (* 1 i s_16 ) (* 1 i i s_20 ) (* 1 j k s_22 ) (* 1 j n s_23 ) (* 1 j s_21 ) (* 1 j j s_24 ) (* 1 k n s_26 ) (* 1 k s_25 ) (* 1 k k s_27 ) (* 1 n s_28 ) (* 1 n n s_29 ) (* 1 s_15 ) ) 0) ) (>= (+ (* (- 1) 1) (* (- 1) c_17 i k ) (* (- 1) c_21 k ) (* (- 1) c_22 k k ) (* (- 1) c_23 k n ) (* (- 2) c_24 j k ) (* (- 1) c_24 k k ) ) 0) )))
(assert (forall ((i Real) (j Real) (k Real) (n Real) ) (=> (and (>= (+ (* (- 1) 1) (* (- 1) i ) (* 1 j ) ) 0) (>= (+ (* (- 1) 1) (* (- 1) i ) (* 1 n ) ) 0) (>= (+ (* 1023 1) (* (- 1) k ) ) 0) (>= (+ (* (- 1) 1) (* 1 k ) ) 0) (>= (* 1 j ) 0) (>= (* 1 i ) 0) (>= (+ (* 1023 1) (* (- 1) n ) ) 0) (>= (+ (* 1 i j s_17 ) (* 1 i k s_18 ) (* 1 i n s_19 ) (* 1 i s_16 ) (* 1 i i s_20 ) (* 1 j k s_22 ) (* 1 j n s_23 ) (* 1 j s_21 ) (* 1 j j s_24 ) (* 1 k n s_26 ) (* 1 k s_25 ) (* 1 k k s_27 ) (* 1 n s_28 ) (* 1 n n s_29 ) (* 1 s_15 ) ) 0) ) (>= (+ (* 1 i j s_32 ) (* 1 i k s_33 ) (* 1 i n s_34 ) (* 1 i s_31 ) (* 2 i s_35 ) (* 1 i i s_35 ) (* 1 j k s_37 ) (* 1 j n s_38 ) (* 1 j s_32 ) (* 1 j s_36 ) (* 1 j j s_39 ) (* 1 k n s_41 ) (* 1 k s_33 ) (* 1 k s_40 ) (* 1 k k s_42 ) (* 1 n s_34 ) (* 1 n s_43 ) (* 1 n n s_44 ) (* 1 s_30 ) (* 1 s_31 ) (* 1 s_35 ) ) 0) )))
(assert (forall ((i Real) (j Real) (k Real) (n Real) ) (=> (and (>= (+ (* (- 1) 1) (* (- 1) i ) (* 1 j ) ) 0) (>= (+ (* (- 1) 1) (* (- 1) i ) (* 1 n ) ) 0) (>= (+ (* 1023 1) (* (- 1) k ) ) 0) (>= (+ (* (- 1) 1) (* 1 k ) ) 0) (>= (* 1 j ) 0) (>= (* 1 i ) 0) (>= (+ (* 1023 1) (* (- 1) n ) ) 0) (>= (+ (* 1 i j s_17 ) (* 1 i k s_18 ) (* 1 i n s_19 ) (* 1 i s_16 ) (* 1 i i s_20 ) (* 1 j k s_22 ) (* 1 j n s_23 ) (* 1 j s_21 ) (* 1 j j s_24 ) (* 1 k n s_26 ) (* 1 k s_25 ) (* 1 k k s_27 ) (* 1 n s_28 ) (* 1 n n s_29 ) (* 1 s_15 ) ) 0) ) (>= (+ (* 1 c_30 ) (* 1 c_31 ) (* 1 c_31 i ) (* 1 c_32 i j ) (* 1 c_32 j ) (* 1 c_33 i k ) (* 1 c_33 k ) (* 1 c_34 i n ) (* 1 c_34 n ) (* 1 c_35 ) (* 2 c_35 i ) (* 1 c_35 i i ) (* 1 c_36 j ) (* 1 c_37 j k ) (* 1 c_38 j n ) (* 1 c_39 j j ) (* 1 c_40 k ) (* 1 c_41 k n ) (* 1 c_42 k k ) (* 1 c_43 n ) (* 1 c_44 n n ) ) 0) )))
(assert (forall ((i Real) (j Real) (k Real) (n Real) ) (=> (and (>= (+ (* (- 1) 1) (* (- 1) i ) (* 1 j ) ) 0) (>= (+ (* (- 1) 1) (* (- 1) i ) (* 1 n ) ) 0) (>= (+ (* 1023 1) (* (- 1) k ) ) 0) (>= (+ (* (- 1) 1) (* 1 k ) ) 0) (>= (* 1 j ) 0) (>= (* 1 i ) 0) (>= (+ (* 1023 1) (* (- 1) n ) ) 0) (>= (+ (* 1 i j s_17 ) (* 1 i k s_18 ) (* 1 i n s_19 ) (* 1 i s_16 ) (* 1 i i s_20 ) (* 1 j k s_22 ) (* 1 j n s_23 ) (* 1 j s_21 ) (* 1 j j s_24 ) (* 1 k n s_26 ) (* 1 k s_25 ) (* 1 k k s_27 ) (* 1 n s_28 ) (* 1 n n s_29 ) (* 1 s_15 ) ) 0) ) (>= (+ (* (- 1) 1) (* 1 c_15 ) (* 1 c_16 i ) (* 1 c_17 i j ) (* 1 c_18 i k ) (* 1 c_19 i n ) (* 1 c_20 i i ) (* 1 c_21 j ) (* 1 c_22 j k ) (* 1 c_23 j n ) (* 1 c_24 j j ) (* 1 c_25 k ) (* 1 c_26 k n ) (* 1 c_27 k k ) (* 1 c_28 n ) (* 1 c_29 n n ) (* (- 1) c_30 ) (* (- 1) c_31 ) (* (- 1) c_31 i ) (* (- 1) c_32 i j ) (* (- 1) c_32 j ) (* (- 1) c_33 i k ) (* (- 1) c_33 k ) (* (- 1) c_34 i n ) (* (- 1) c_34 n ) (* (- 1) c_35 ) (* (- 2) c_35 i ) (* (- 1) c_35 i i ) (* (- 1) c_36 j ) (* (- 1) c_37 j k ) (* (- 1) c_38 j n ) (* (- 1) c_39 j j ) (* (- 1) c_40 k ) (* (- 1) c_41 k n ) (* (- 1) c_42 k k ) (* (- 1) c_43 n ) (* (- 1) c_44 n n ) ) 0) )))
(assert (forall ((i Real) (j Real) (k Real) (n Real) ) (=> (and (>= (+ (* (- 1) 1) (* (- 1) i ) (* 1 n ) ) 0) (>= (+ (* 1023 1) (* (- 1) k ) ) 0) (>= (+ (* 1023 1) (* (- 1) n ) ) 0) (>= (+ (* (- 1) 1) (* 1 k ) ) 0) (>= (* 1 i ) 0) (>= (+ (* 1 i j s_32 ) (* 1 i k s_33 ) (* 1 i n s_34 ) (* 1 i s_31 ) (* 1 i i s_35 ) (* 1 j k s_37 ) (* 1 j n s_38 ) (* 1 j s_36 ) (* 1 j j s_39 ) (* 1 k n s_41 ) (* 1 k s_40 ) (* 1 k k s_42 ) (* 1 n s_43 ) (* 1 n n s_44 ) (* 1 s_30 ) ) 0) ) (>= (+ (* 1 i k s_18 ) (* 1 i n s_19 ) (* 1 i s_16 ) (* 1 i i s_20 ) (* 1 k n s_26 ) (* 1 k s_25 ) (* 1 k k s_27 ) (* 1 n s_28 ) (* 1 n n s_29 ) (* 1 s_15 ) ) 0) )))
(assert (forall ((i Real) (j Real) (k Real) (n Real) ) (=> (and (>= (+ (* (- 1) 1) (* (- 1) i ) (* 1 n ) ) 0) (>= (+ (* 1023 1) (* (- 1) k ) ) 0) (>= (+ (* 1023 1) (* (- 1) n ) ) 0) (>= (+ (* (- 1) 1) (* 1 k ) ) 0) (>= (* 1 i ) 0) (>= (+ (* 1 i j s_32 ) (* 1 i k s_33 ) (* 1 i n s_34 ) (* 1 i s_31 ) (* 1 i i s_35 ) (* 1 j k s_37 ) (* 1 j n s_38 ) (* 1 j s_36 ) (* 1 j j s_39 ) (* 1 k n s_41 ) (* 1 k s_40 ) (* 1 k k s_42 ) (* 1 n s_43 ) (* 1 n n s_44 ) (* 1 s_30 ) ) 0) ) (>= (+ (* 1 c_15 ) (* 1 c_16 i ) (* 1 c_18 i k ) (* 1 c_19 i n ) (* 1 c_20 i i ) (* 1 c_25 k ) (* 1 c_26 k n ) (* 1 c_27 k k ) (* 1 c_28 n ) (* 1 c_29 n n ) ) 0) )))
(assert (forall ((i Real) (j Real) (k Real) (n Real) ) (=> (and (>= (+ (* (- 1) 1) (* (- 1) i ) (* 1 n ) ) 0) (>= (+ (* 1023 1) (* (- 1) k ) ) 0) (>= (+ (* 1023 1) (* (- 1) n ) ) 0) (>= (+ (* (- 1) 1) (* 1 k ) ) 0) (>= (* 1 i ) 0) (>= (+ (* 1 i j s_32 ) (* 1 i k s_33 ) (* 1 i n s_34 ) (* 1 i s_31 ) (* 1 i i s_35 ) (* 1 j k s_37 ) (* 1 j n s_38 ) (* 1 j s_36 ) (* 1 j j s_39 ) (* 1 k n s_41 ) (* 1 k s_40 ) (* 1 k k s_42 ) (* 1 n s_43 ) (* 1 n n s_44 ) (* 1 s_30 ) ) 0) ) (>= (+ (* (- 1) 1) (* (- 1) c_15 ) (* (- 1) c_16 i ) (* (- 1) c_18 i k ) (* (- 1) c_19 i n ) (* (- 1) c_20 i i ) (* (- 1) c_25 k ) (* (- 1) c_26 k n ) (* (- 1) c_27 k k ) (* (- 1) c_28 n ) (* (- 1) c_29 n n ) (* 1 c_30 ) (* 1 c_31 i ) (* 1 c_32 i j ) (* 1 c_33 i k ) (* 1 c_34 i n ) (* 1 c_35 i i ) (* 1 c_36 j ) (* 1 c_37 j k ) (* 1 c_38 j n ) (* 1 c_39 j j ) (* 1 c_40 k ) (* 1 c_41 k n ) (* 1 c_42 k k ) (* 1 c_43 n ) (* 1 c_44 n n ) ) 0) )))
(assert (forall ((i Real) (j Real) (k Real) (n Real) ) (=> (and (>= (+ (* 1 i ) (* (- 1) n ) ) 0) (>= (+ (* 1023 1) (* (- 1) k ) ) 0) (>= (+ (* 1023 1) (* (- 1) n ) ) 0) (>= (+ (* (- 1) 1) (* 1 k ) ) 0) (>= (* 1 i ) 0) (>= (+ (* 1 i j s_32 ) (* 1 i k s_33 ) (* 1 i n s_34 ) (* 1 i s_31 ) (* 1 i i s_35 ) (* 1 j k s_37 ) (* 1 j n s_38 ) (* 1 j s_36 ) (* 1 j j s_39 ) (* 1 k n s_41 ) (* 1 k s_40 ) (* 1 k k s_42 ) (* 1 n s_43 ) (* 1 n n s_44 ) (* 1 s_30 ) ) 0) ) (>= (+ (* 1 i j s_47 ) (* 1 i k s_48 ) (* 1 i n s_49 ) (* 1 i s_46 ) (* 1 i i s_50 ) (* 1 j k s_52 ) (* 1 j n s_53 ) (* 1 j s_51 ) (* 1 j j s_54 ) (* 1 k n s_56 ) (* 1 k s_55 ) (* 1 k k s_57 ) (* 1 n s_58 ) (* 1 n n s_59 ) (* 1 s_45 ) ) 0) )))
(assert (forall ((i Real) (j Real) (k Real) (n Real) ) (=> (and (>= (+ (* 1 i ) (* (- 1) n ) ) 0) (>= (+ (* 1023 1) (* (- 1) k ) ) 0) (>= (+ (* 1023 1) (* (- 1) n ) ) 0) (>= (+ (* (- 1) 1) (* 1 k ) ) 0) (>= (* 1 i ) 0) (>= (+ (* 1 i j s_32 ) (* 1 i k s_33 ) (* 1 i n s_34 ) (* 1 i s_31 ) (* 1 i i s_35 ) (* 1 j k s_37 ) (* 1 j n s_38 ) (* 1 j s_36 ) (* 1 j j s_39 ) (* 1 k n s_41 ) (* 1 k s_40 ) (* 1 k k s_42 ) (* 1 n s_43 ) (* 1 n n s_44 ) (* 1 s_30 ) ) 0) ) (>= (+ (* 1 c_45 ) (* 1 c_46 i ) (* 1 c_47 i j ) (* 1 c_48 i k ) (* 1 c_49 i n ) (* 1 c_50 i i ) (* 1 c_51 j ) (* 1 c_52 j k ) (* 1 c_53 j n ) (* 1 c_54 j j ) (* 1 c_55 k ) (* 1 c_56 k n ) (* 1 c_57 k k ) (* 1 c_58 n ) (* 1 c_59 n n ) ) 0) )))

(check-sat)
(get-model)
